nP = 3;
nT = 15;
nC1 = 9;
nC2 = 19;
nA = 88;
nD = 3;

arc_from = [1, 3, 1, 2, 2, 3, 2, 3, 1, 1, 3, 1, 2, 3, 1, 3, 3, 1, 2, 2, 3, 2, 2, 3, 3, 4, 5, 5, 5, 6, 7, 8, 8, 9, 10, 10, 11, 11, 12, 13, 13, 13, 14, 15, 15, 15, 16, 16, 16, 17, 17, 17, 18, 18, 18, 27, 21, 20, 26, 24, 23, 25, 23, 26, 23, 22, 25, 26, 20, 22, 25, 24, 23, 23, 19, 20, 20, 21, 21, 22, 22, 23, 23, 24, 25, 26, 27, 27];
arc_to = [4, 4, 5, 5, 6, 7, 7, 8, 8, 9, 9, 10, 10, 11, 12, 12, 13, 13, 14, 15, 15, 16, 17, 17, 18, 22, 23, 22, 24, 25, 20, 21, 23, 19, 19, 23, 24, 25, 22, 25, 21, 20, 20, 25, 22, 26, 21, 22, 26, 23, 26, 21, 19, 26, 21, 28, 29, 30, 31, 32, 33, 34, 35, 36, 37, 38, 39, 40, 41, 42, 43, 44, 45, 46, 40, 28, 29, 37, 35, 35, 34, 32, 31, 37, 29, 30, 38, 41];

supply = [483.63, 483.63, 483.63, 0.00, 0.00, 0.00, 0.00, 0.00, 0.00, 0.00, 0.00, 0.00, 0.00, 0.00, 0.00, 0.00, 0.00, 0.00, 0.00, 0.00, 0.00, 0.00, 0.00, 0.00, 0.00, 0.00, 0.00, 0.00, 0.00, 0.00, 0.00, 0.00, 0.00, 0.00, 0.00, 0.00, 0.00, 0.00, 0.00, 0.00, 0.00, 0.00, 0.00, 0.00, 0.00, 0.00];
demand = [0.00, 0.00, 0.00, 0.00, 0.00, 0.00, 0.00, 0.00, 0.00, 0.00, 0.00, 0.00, 0.00, 0.00, 0.00, 0.00, 0.00, 0.00, 41.77, 38.58, 34.96, 43.59, 45.83, 34.50, 39.23, 36.65, 44.93, 44.67, 44.44, 35.32, 43.29, 37.47, 45.53, 38.91, 43.76, 35.42, 35.66, 40.14, 46.53, 38.63, 33.34, 39.39, 36.39, 39.59, 39.46, 38.10];

max_capacity = [795, 1414, 3181];

install_cost = array2d(1..nA, 1..nD, [
  20, 24, 32,
  50, 62, 78,
  20, 24, 32,
  50, 62, 78,
  20, 24, 32,
  50, 62, 78,
  20, 24, 32,
  50, 62, 78,
  20, 24, 32,
  50, 62, 78,
  20, 24, 32,
  50, 62, 78,
  20, 24, 32,
  50, 62, 78,
  20, 24, 32,
  50, 62, 78,
  20, 24, 32,
  50, 62, 78,
  20, 24, 32,
  50, 62, 78,
  20, 24, 32,
  50, 62, 78,
  20, 24, 32,
  50, 62, 78,
  20, 24, 32,
  50, 62, 78,
  20, 24, 32,
  50, 62, 78,
  20, 24, 32,
  50, 62, 78,
  20, 24, 32,
  50, 62, 78,
  20, 24, 32,
  50, 62, 78,
  20, 24, 32,
  50, 62, 78,
  20, 24, 32,
  50, 62, 78,
  20, 24, 32,
  50, 62, 78,
  20, 24, 32,
  50, 62, 78,
  20, 24, 32,
  50, 62, 78,
  20, 24, 32,
  50, 62, 78,
  20, 24, 32,
  50, 62, 78,
  20, 24, 32,
  50, 62, 78,
  20, 24, 32,
  50, 62, 78,
  20, 24, 32,
  50, 62, 78,
  20, 24, 32,
  50, 62, 78,
  20, 24, 32,
  50, 62, 78,
  20, 24, 32,
  50, 62, 78,
  20, 24, 32,
  50, 62, 78,
  20, 24, 32,
  50, 62, 78,
  20, 24, 32,
  50, 62, 78,
  20, 24, 32,
  50, 62, 78,
  20, 24, 32,
  50, 62, 78,
  20, 24, 32,
  50, 62, 78,
  20, 24, 32,
  50, 62, 78,
  20, 24, 32,
  50, 62, 78,
  20, 24, 32,
  50, 62, 78,
  20, 24, 32,
  50, 62, 78,
  20, 24, 32,
  50, 62, 78,
  20, 24, 32,
  50, 62, 78,
  20, 24, 32,
  50, 62, 78,
  20, 24, 32,
  50, 62, 78
]);

trans_cost = [8.95, 6.05, 4.95, 6.32, 5.83, 5.67, 6.92, 7.14, 5.20, 5.14, 5.59, 2.55, 3.73, 8.05, 8.47, 5.63, 6.86, 6.47, 10.62, 7.68, 5.81, 4.57, 3.59, 6.31, 4.87, 3.87, 5.03, 4.38, 8.53, 7.32, 5.99, 8.22, 6.12, 4.71, 8.28, 6.81, 4.44, 5.71, 4.69, 3.93, 7.39, 8.86, 3.90, 6.84, 5.02, 5.27, 5.11, 4.70, 6.07, 4.75, 6.41, 5.92, 5.64, 4.64, 5.13, 7.13, 6.75, 4.53, 6.15, 7.13, 3.50, 6.82, 5.01, 6.86, 4.86, 3.29, 3.56, 6.07, 6.39, 4.64, 6.96, 3.51, 5.90, 4.18, 5.02, 6.07, 4.71, 5.42, 7.51, 5.13, 7.25, 4.31, 6.79, 8.16, 2.29, 4.80, 6.87, 5.70];

% Metadata: {'tamaño': 'medianas', 'numero': 4, 'grupo': 5, 'demanda_total': 1116.08, 'suministro_total': 1450.89, 'factor_holgura': 1.3, 'num_arcos': 88, 'conectividad': {'plantas_tanques': 25, 'tanques_transbordo': 30, 'transbordo_finales': 33}}
% Total supply: 1450.89
% Total demand: 1116.08
% Balance factor: 1.30
